Minimize
  - 23 y_0 - 31 y_1 - 13 y_2 - 34 y_3 - 54 y_4 - 26 y_5 - 35 y_6 - 47 y_7
   - 45 y_8 - 41 y_9 - 47 y_10 - 34 y_11 - 41 y_12 - 49 y_13 - 35 y_15
   - 24 y_16 - 35 y_17 - 40 y_18 - 32 y_19 + 68 x_0_1 + 30 x_0_2 + 65 x_0_4
   + 37 x_0_6 + 48 x_0_7 + 64 x_0_8 + 85 x_0_9 + 47 x_0_10 + 42 x_0_12
   + 83 x_0_13 + 47 x_0_14 + 55 x_0_15 + 58 x_0_16 + 26 x_0_17 + 34 x_0_18
   + 44 x_1_2 + 92 x_1_4 + 56 x_1_5 + 53 x_1_6 + 50 x_1_8 + 24 x_1_11
   + 69 x_1_12 + 13 x_1_16 + 91 x_1_17 + 86 x_1_18 + 52 x_2_3 + 84 x_2_4
   + 29 x_2_5 + 44 x_2_6 + 73 x_2_7 + 63 x_2_8 + 44 x_2_11 + 58 x_2_12
   + 45 x_2_15 + 32 x_2_16 + 56 x_2_17 + 61 x_2_18 + 39 x_2_19 + 30 x_3_5
   + 42 x_3_6 + 33 x_3_7 + 26 x_3_10 + 38 x_3_12 + 67 x_3_15 + 6 x_3_17
   + 17 x_3_18 + 63 x_3_19 + 55 x_4_5 + 42 x_4_6 + 23 x_4_7 + 48 x_4_8
   + 43 x_4_10 + 68 x_4_11 + 26 x_4_12 + 108 x_4_14 + 91 x_4_16 + 57 x_4_17
   + 36 x_4_18 + 65 x_4_19 + 21 x_5_6 + 44 x_5_7 + 47 x_5_8 + 50 x_5_10
   + 30 x_5_12 + 66 x_5_13 + 53 x_5_14 + 48 x_5_16 + 33 x_5_18 + 34 x_5_19
   + 40 x_6_7 + 63 x_6_9 + 54 x_6_10 + 31 x_6_11 + 49 x_6_13 + 70 x_6_14
   + 27 x_6_15 + 50 x_6_16 + 36 x_6_18 + 26 x_6_19 + 57 x_7_8 + 103 x_7_9
   + 21 x_7_10 + 71 x_7_11 + 24 x_7_12 + 82 x_7_13 + 35 x_7_17 + 15 x_7_18
   + 66 x_7_19 + 76 x_8_10 + 35 x_8_12 + 24 x_8_13 + 89 x_8_14 + 23 x_8_15
   + 54 x_8_16 + 75 x_8_17 + 28 x_8_19 + 117 x_9_10 + 32 x_9_11 + 79 x_9_12
   + 36 x_9_15 + 33 x_9_16 + 106 x_9_17 + 99 x_9_18 + 38 x_9_19
   + 85 x_10_11 + 93 x_10_14 + 81 x_10_15 + 98 x_10_16 + 24 x_10_17
   + 79 x_10_19 + 47 x_11_12 + 68 x_11_14 + 5 x_11_15 + 75 x_11_17
   + 67 x_11_18 + 7 x_11_19 + 59 x_12_13 + 82 x_12_14 + 43 x_12_15
   + 67 x_12_16 + 43 x_12_17 + 99 x_13_14 + 55 x_13_16 + 97 x_13_17
   + 36 x_13_19 + 70 x_14_15 + 81 x_14_18 + 73 x_15_17 + 63 x_15_18
   + 6 x_15_19 + 81 x_16_18 + 69 x_17_19 + 61 x_18_19 + 686 Constant
Subject To
 c_0: y_6 = 1
 c_1_0: y_0 >= 1
 c_1_1: y_1 >= 1
 c_1_2: y_2 >= 1
 c_1_3: y_3 >= 1
 c_1_4: y_4 >= 1
 c_1_5: y_5 >= 1
 c_1_6: y_6 >= 1
 c_1_7: y_7 >= 1
 c_1_8: y_8 >= 1
 c_1_9: y_9 >= 1
 c_1_10: y_10 >= 1
 c_1_11: y_11 >= 1
 c_1_12: y_12 >= 1
 c_1_13: y_13 >= 1
 c_1_14: y_14 >= 1
 c_1_15: y_15 >= 1
 c_1_16: y_16 >= 1
 c_1_17: y_17 >= 1
 c_1_18: y_18 >= 1
 c_1_19: y_19 >= 1
 c_2_0: - 2 y_0 + x_0_1 + x_0_2 + x_0_4 + x_0_6 + x_0_7 + x_0_8 + x_0_9
   + x_0_10 + x_0_12 + x_0_13 + x_0_14 + x_0_15 + x_0_16 + x_0_17 + x_0_18
   = 0
 c_2_1: - 2 y_1 + x_0_1 + x_1_2 + x_1_4 + x_1_5 + x_1_6 + x_1_8 + x_1_11
   + x_1_12 + x_1_16 + x_1_17 + x_1_18 = 0
 c_2_2: - 2 y_2 + x_0_2 + x_1_2 + x_2_3 + x_2_4 + x_2_5 + x_2_6 + x_2_7
   + x_2_8 + x_2_11 + x_2_12 + x_2_15 + x_2_16 + x_2_17 + x_2_18 + x_2_19
   = 0
 c_2_3: - 2 y_3 + x_2_3 + x_3_5 + x_3_6 + x_3_7 + x_3_10 + x_3_12 + x_3_15
   + x_3_17 + x_3_18 + x_3_19 = 0
 c_2_4: - 2 y_4 + x_0_4 + x_1_4 + x_2_4 + x_4_5 + x_4_6 + x_4_7 + x_4_8
   + x_4_10 + x_4_11 + x_4_12 + x_4_14 + x_4_16 + x_4_17 + x_4_18 + x_4_19
   = 0
 c_2_5: - 2 y_5 + x_1_5 + x_2_5 + x_3_5 + x_4_5 + x_5_6 + x_5_7 + x_5_8
   + x_5_10 + x_5_12 + x_5_13 + x_5_14 + x_5_16 + x_5_18 + x_5_19 = 0
 c_2_6: - 2 y_6 + x_0_6 + x_1_6 + x_2_6 + x_3_6 + x_4_6 + x_5_6 + x_6_7
   + x_6_9 + x_6_10 + x_6_11 + x_6_13 + x_6_14 + x_6_15 + x_6_16 + x_6_18
   + x_6_19 = 0
 c_2_7: - 2 y_7 + x_0_7 + x_2_7 + x_3_7 + x_4_7 + x_5_7 + x_6_7 + x_7_8
   + x_7_9 + x_7_10 + x_7_11 + x_7_12 + x_7_13 + x_7_17 + x_7_18 + x_7_19
   = 0
 c_2_8: - 2 y_8 + x_0_8 + x_1_8 + x_2_8 + x_4_8 + x_5_8 + x_7_8 + x_8_10
   + x_8_12 + x_8_13 + x_8_14 + x_8_15 + x_8_16 + x_8_17 + x_8_19 = 0
 c_2_9: - 2 y_9 + x_0_9 + x_6_9 + x_7_9 + x_9_10 + x_9_11 + x_9_12 + x_9_15
   + x_9_16 + x_9_17 + x_9_18 + x_9_19 = 0
 c_2_10: - 2 y_10 + x_0_10 + x_3_10 + x_4_10 + x_5_10 + x_6_10 + x_7_10
   + x_8_10 + x_9_10 + x_10_11 + x_10_14 + x_10_15 + x_10_16 + x_10_17
   + x_10_19 = 0
 c_2_11: - 2 y_11 + x_1_11 + x_2_11 + x_4_11 + x_6_11 + x_7_11 + x_9_11
   + x_10_11 + x_11_12 + x_11_14 + x_11_15 + x_11_17 + x_11_18 + x_11_19
   = 0
 c_2_12: - 2 y_12 + x_0_12 + x_1_12 + x_2_12 + x_3_12 + x_4_12 + x_5_12
   + x_7_12 + x_8_12 + x_9_12 + x_11_12 + x_12_13 + x_12_14 + x_12_15
   + x_12_16 + x_12_17 = 0
 c_2_13: - 2 y_13 + x_0_13 + x_5_13 + x_6_13 + x_7_13 + x_8_13 + x_12_13
   + x_13_14 + x_13_16 + x_13_17 + x_13_19 = 0
 c_2_14: - 2 y_14 + x_0_14 + x_4_14 + x_5_14 + x_6_14 + x_8_14 + x_10_14
   + x_11_14 + x_12_14 + x_13_14 + x_14_15 + x_14_18 = 0
 c_2_15: - 2 y_15 + x_0_15 + x_2_15 + x_3_15 + x_6_15 + x_8_15 + x_9_15
   + x_10_15 + x_11_15 + x_12_15 + x_14_15 + x_15_17 + x_15_18 + x_15_19
   = 0
 c_2_16: - 2 y_16 + x_0_16 + x_1_16 + x_2_16 + x_4_16 + x_5_16 + x_6_16
   + x_8_16 + x_9_16 + x_10_16 + x_12_16 + x_13_16 + x_16_18 = 0
 c_2_17: - 2 y_17 + x_0_17 + x_1_17 + x_2_17 + x_3_17 + x_4_17 + x_7_17
   + x_8_17 + x_9_17 + x_10_17 + x_11_17 + x_12_17 + x_13_17 + x_15_17
   + x_17_19 = 0
 c_2_18: - 2 y_18 + x_0_18 + x_1_18 + x_2_18 + x_3_18 + x_4_18 + x_5_18
   + x_6_18 + x_7_18 + x_9_18 + x_11_18 + x_14_18 + x_15_18 + x_16_18
   + x_18_19 = 0
 c_2_19: - 2 y_19 + x_2_19 + x_3_19 + x_4_19 + x_5_19 + x_6_19 + x_7_19
   + x_8_19 + x_9_19 + x_10_19 + x_11_19 + x_13_19 + x_15_19 + x_17_19
   + x_18_19 = 0
Bounds
 Constant = 1
Binaries
 y_0 y_1 y_2 y_3 y_4 y_5 y_6 y_7 y_8 y_9 y_10 y_11 y_12 y_13 y_14 y_15 y_16
 y_17 y_18 y_19 x_0_1 x_0_2 x_0_4 x_0_6 x_0_7 x_0_8 x_0_9 x_0_10 x_0_12
 x_0_13 x_0_14 x_0_15 x_0_16 x_0_17 x_0_18 x_1_2 x_1_4 x_1_5 x_1_6 x_1_8
 x_1_11 x_1_12 x_1_16 x_1_17 x_1_18 x_2_3 x_2_4 x_2_5 x_2_6 x_2_7 x_2_8
 x_2_11 x_2_12 x_2_15 x_2_16 x_2_17 x_2_18 x_2_19 x_3_5 x_3_6 x_3_7 x_3_10
 x_3_12 x_3_15 x_3_17 x_3_18 x_3_19 x_4_5 x_4_6 x_4_7 x_4_8 x_4_10 x_4_11
 x_4_12 x_4_14 x_4_16 x_4_17 x_4_18 x_4_19 x_5_6 x_5_7 x_5_8 x_5_10 x_5_12
 x_5_13 x_5_14 x_5_16 x_5_18 x_5_19 x_6_7 x_6_9 x_6_10 x_6_11 x_6_13 x_6_14
 x_6_15 x_6_16 x_6_18 x_6_19 x_7_8 x_7_9 x_7_10 x_7_11 x_7_12 x_7_13 x_7_17
 x_7_18 x_7_19 x_8_10 x_8_12 x_8_13 x_8_14 x_8_15 x_8_16 x_8_17 x_8_19
 x_9_10 x_9_11 x_9_12 x_9_15 x_9_16 x_9_17 x_9_18 x_9_19 x_10_11 x_10_14
 x_10_15 x_10_16 x_10_17 x_10_19 x_11_12 x_11_14 x_11_15 x_11_17 x_11_18
 x_11_19 x_12_13 x_12_14 x_12_15 x_12_16 x_12_17 x_13_14 x_13_16 x_13_17
 x_13_19 x_14_15 x_14_18 x_15_17 x_15_18 x_15_19 x_16_18 x_17_19 x_18_19
End
